p tw 130 146
1 2
2 43
3 14
4 5
5 6
6 7
7 8
8 9
9 10
10 11
10 16
11 12
12 13
13 15
14 25
15 22
16 17
17 18
18 19
19 20
20 21
21 22
22 23
23 24
24 26
25 36
25 38
26 101
27 28
28 29
29 30
30 31
30 101
31 34
32 33
33 34
34 35
36 37
37 38
38 39
39 40
40 41
41 42
42 44
43 54
44 45
45 46
46 47
47 48
48 49
49 50
49 67
50 51
51 52
52 53
52 61
53 55
54 65
55 56
56 57
57 58
58 59
59 60
59 42
60 34
61 62
62 63
63 64
63 42
64 66
65 76
66 34
67 68
68 34
69 70
70 71
71 72
71 73
72 34
73 74
74 75
75 77
76 87
76 101
77 78
78 79
79 80
80 81
80 99
81 82
82 83
83 84
83 93
84 85
85 86
86 88
87 98
88 89
89 90
90 91
91 92
91 73
92 34
93 94
94 95
95 96
95 73
96 97
97 34
98 109
98 69
99 100
100 34
101 102
102 103
103 104
104 105
105 106
106 107
107 108
107 113
108 110
109 120
110 111
111 112
112 119
113 114
114 115
115 116
116 117
117 118
118 119
119 121
120 3
121 122
122 123
123 124
123 32
124 125
125 126
126 127
127 128
128 129
129 130
129 27
130 4
